benchmark_str_length/p2_10_9-3.dzn
Alphabet = {A,C,G,T};
ns = 10;
nc = 8;
sl = 10;
neighbours = [| I(T),I(A),I(T),Null,Null,Null,Null,Null | I(G),I(T),Null,Null,Null,Null,Null,Null | I(T),I(T),I(C),I(C),I(C),I(A),I(T),Null | I(T),I(T),I(G),I(C),I(G),I(T),I(G),Null | Null,Null,Null,Null,Null,Null,Null,Null | I(G),I(T),I(C),I(A),I(C),I(G),I(T),I(T) | I(G),I(A),I(T),Null,Null,Null,Null,Null | I(C),I(G),I(G),Null,Null,Null,Null,Null | I(T),I(G),Null,Null,Null,Null,Null,Null | I(C),I(G),I(G),Null,Null,Null,Null,Null |];
